c Result of efficient AIG-to-CNF conversion using package CNF
p cnf 174 660
-2 3 83 0
-2 -3 -83 0
2 -3 83 0
2 3 -83 0
-3 -4 -48 0
-3 4 48 0
3 4 -48 0
3 -4 48 0
-4 5 20 0
-4 20 43 0
-4 5 43 0
4 -20 -43 0
4 -5 -20 0
4 -5 -43 0
-5 6 15 0
-5 6 19 0
5 -6 0
5 -15 -19 0
6 -7 -11 0
-6 7 0
-6 11 0
-7 8 9 0
-7 -8 -9 0
7 -8 9 0
7 8 -9 0
8 -159 162 0
8 -159 160 0
-8 159 0
-8 -160 -162 0
-9 159 10 0
-9 -159 -10 0
9 -159 10 0
9 159 -10 0
-10 159 162 0
-10 -162 163 0
-10 160 162 0
10 -162 -163 0
10 -159 -160 162 0
-11 12 13 0
-11 -12 -13 0
11 -12 13 0
11 12 -13 0
12 -164 167 0
12 -164 166 0
-12 164 0
-12 -166 -167 0
-13 164 14 0
-13 -164 -14 0
13 -164 14 0
13 164 -14 0
-14 164 167 0
-14 161 -167 0
-14 166 167 0
14 -161 -167 0
14 -164 -166 167 0
-15 16 17 0
-15 -16 -17 0
15 -16 17 0
15 16 -17 0
16 165 -168 0
16 -168 169 0
-16 168 0
-16 -165 -169 0
-17 168 18 0
-17 -168 -18 0
17 -168 18 0
17 168 -18 0
-18 -165 171 0
-18 165 169 0
-18 165 168 0
18 -165 -171 0
18 165 -168 -169 0
19 -7 11 0
19 7 -11 0
-19 7 11 0
-19 -7 -11 0
-20 -21 -28 0
-20 21 28 0
20 21 -28 0
20 -21 28 0
-21 22 24 0
-21 -22 -24 0
21 -22 24 0
21 22 -24 0
22 -168 169 23 0
-22 168 0
-22 -23 0
-22 -169 0
23 -165 -171 0
-23 165 0
-23 171 0
-24 25 26 0
-24 -25 -26 0
24 -25 26 0
24 25 -26 0
25 168 -169 -173 0
25 -168 -169 173 0
-25 169 0
-25 -168 -173 0
-25 168 173 0
-26 168 27 0
-26 -168 -27 0
26 -168 27 0
26 168 -27 0
-27 -165 172 0
-27 165 171 0
-27 165 168 0
27 -165 -172 0
27 165 -168 -171 0
28 -29 36 0
28 29 -36 0
-28 29 36 0
-28 -29 -36 0
-29 30 32 0
-29 -30 -32 0
29 -30 32 0
29 30 -32 0
30 -159 160 31 0
-30 159 0
-30 -31 0
-30 -160 0
31 -162 -163 0
-31 162 0
-31 163 0
-32 33 34 0
-32 -33 -34 0
32 -33 34 0
32 33 -34 0
33 157 -159 -160 0
33 -157 159 -160 0
-33 160 0
-33 157 159 0
-33 -157 -159 0
-34 159 35 0
-34 -159 -35 0
34 -159 35 0
34 159 -35 0
-35 162 163 0
-35 156 -162 0
-35 159 162 0
35 -156 -162 0
35 -159 162 -163 0
-36 37 39 0
-36 -37 -39 0
36 -37 39 0
36 37 -39 0
37 -164 166 38 0
-37 164 0
-37 -38 0
-37 -166 0
38 -161 -167 0
-38 161 0
-38 167 0
-39 40 41 0
-39 -40 -41 0
39 -40 41 0
39 40 -41 0
40 155 -164 -166 0
40 -155 164 -166 0
-40 166 0
-40 155 164 0
-40 -155 -164 0
-41 164 42 0
-41 -164 -42 0
41 -164 42 0
41 164 -42 0
-42 161 167 0
-42 154 -167 0
-42 164 167 0
42 -154 -167 0
42 -161 -164 167 0
43 15 -19 -44 0
43 -15 19 -44 0
-43 44 0
-43 15 19 0
-43 -15 -19 0
-44 45 46 0
-44 160 45 0
-44 162 45 0
44 -45 0
44 -160 -162 -46 0
45 -165 -166 -167 -169 0
-45 169 0
-45 165 0
-45 167 0
-45 166 0
-46 165 47 0
-46 169 47 0
46 -47 0
46 -165 -169 0
47 -166 -167 0
-47 166 0
-47 167 0
48 -49 51 0
48 49 -51 0
-48 49 51 0
-48 -49 -51 0
-49 50 28 0
-49 21 50 0
49 -50 0
49 -21 -28 0
50 -29 -36 0
-50 29 0
-50 36 0
-51 -52 -62 0
-51 52 62 0
51 52 -62 0
51 -52 62 0
-52 -53 -54 0
-52 53 54 0
52 53 -54 0
52 -53 54 0
-53 25 26 0
-53 22 25 0
-53 22 26 0
53 -22 -25 0
53 -25 -26 0
53 -22 -26 0
54 55 -56 0
54 -55 56 0
-54 -55 -56 0
-54 55 56 0
55 -153 25 0
-55 153 0
-55 -25 0
56 -57 59 0
56 57 -59 0
-56 57 59 0
-56 -57 -59 0
-57 168 58 0
-57 -168 -58 0
57 -168 58 0
57 168 -58 0
-58 165 172 0
-58 152 -165 0
-58 165 168 0
58 -152 -165 0
58 165 -168 -172 0
-59 153 60 0
-59 -153 -60 0
59 -153 60 0
59 153 -60 0
-60 171 61 0
-60 -168 -173 61 0
-60 168 173 61 0
60 -61 0
60 168 -171 -173 0
60 -168 -171 173 0
61 -153 168 -169 173 0
61 153 -168 -169 -173 0
-61 168 -173 0
-61 153 173 0
-61 169 0
-61 -153 -168 0
62 -63 73 0
62 63 -73 0
-62 63 73 0
-62 -63 -73 0
-63 -64 -65 0
-63 64 65 0
63 64 -65 0
63 -64 65 0
-64 33 34 0
-64 30 33 0
-64 30 34 0
64 -30 -33 0
64 -33 -34 0
64 -30 -34 0
65 66 -67 0
65 -66 67 0
-65 -66 -67 0
-65 66 67 0
66 -151 33 0
-66 151 0
-66 -33 0
67 -68 70 0
67 68 -70 0
-67 68 70 0
-67 -68 -70 0
-68 159 69 0
-68 -159 -69 0
68 -159 69 0
68 159 -69 0
-69 156 162 0
-69 150 -162 0
-69 159 162 0
69 -150 -162 0
69 -156 -159 162 0
-70 151 71 0
-70 -151 -71 0
70 -151 71 0
70 151 -71 0
-71 163 72 0
-71 157 159 72 0
-71 -157 -159 72 0
71 -72 0
71 157 -159 -163 0
71 -157 159 -163 0
72 -151 157 159 -160 0
72 151 -157 -159 -160 0
-72 -157 159 0
-72 -151 -159 0
-72 160 0
-72 151 157 0
-73 -74 -75 0
-73 74 75 0
73 74 -75 0
73 -74 75 0
-74 40 41 0
-74 37 40 0
-74 37 41 0
74 -37 -40 0
74 -40 -41 0
74 -37 -41 0
75 76 -77 0
75 -76 77 0
-75 -76 -77 0
-75 76 77 0
76 -170 40 0
-76 170 0
-76 -40 0
77 -78 80 0
77 78 -80 0
-77 78 80 0
-77 -78 -80 0
-78 164 79 0
-78 -164 -79 0
78 -164 79 0
78 164 -79 0
-79 158 -167 0
-79 164 167 0
-79 154 167 0
79 -158 -167 0
79 -154 -164 167 0
-80 170 81 0
-80 -170 -81 0
80 -170 81 0
80 170 -81 0
-81 161 82 0
-81 -155 -164 82 0
-81 155 164 82 0
81 -82 0
81 155 -161 -164 0
81 -155 -161 164 0
82 155 164 -166 -170 0
82 -155 -164 -166 170 0
-82 164 170 0
-82 155 -164 0
-82 166 0
-82 -155 -170 0
-83 -84 -130 0
-83 84 130 0
83 84 -130 0
83 -84 130 0
-84 -85 -100 0
-84 85 100 0
84 85 -100 0
84 -85 100 0
-85 86 92 0
-85 -86 -92 0
85 -86 92 0
85 86 -92 0
-86 87 90 0
86 -87 0
86 -90 0
87 -88 -89 0
-87 88 0
-87 89 0
-88 168 172 0
-88 165 168 0
-88 165 -171 0
-88 -165 -168 -172 0
88 165 -168 171 0
88 -165 -168 172 0
88 -165 168 -172 0
89 168 -169 -173 0
89 -168 -169 173 0
-89 169 0
-89 -168 -173 0
-89 168 173 0
90 165 171 -91 0
90 -165 172 -91 0
-90 91 0
-90 165 -171 0
-90 -165 -172 0
91 -168 169 23 0
-91 168 0
-91 -23 0
-91 -169 0
-92 93 97 0
-92 -93 -97 0
92 -93 97 0
92 93 -97 0
93 153 -95 0
93 -153 94 95 0
93 153 -96 0
-93 -153 -94 0
-93 -153 -95 0
-93 153 95 96 0
94 168 -169 173 0
-94 -168 0
-94 169 0
-94 -173 0
95 168 -171 -173 0
95 -168 -171 173 0
-95 171 0
-95 -168 -173 0
-95 168 173 0
96 -168 -169 -173 0
-96 168 0
-96 169 0
-96 173 0
-97 98 99 0
-97 -98 -99 0
97 -98 99 0
97 98 -99 0
98 -153 89 0
-98 153 0
-98 -89 0
-99 152 168 0
-99 165 168 0
-99 165 -172 0
-99 -152 -165 -168 0
99 152 -165 -168 0
99 165 -168 172 0
99 -152 -165 168 0
100 -101 116 0
100 101 -116 0
-100 101 116 0
-100 -101 -116 0
-101 -102 -108 0
-101 102 108 0
101 102 -108 0
101 -102 108 0
102 -103 -107 0
-102 103 0
-102 107 0
103 -164 105 0
103 164 -104 -106 0
103 -104 105 0
-103 -164 -105 0
-103 164 104 0
-103 -105 106 0
104 -154 -167 0
-104 154 0
-104 167 0
-105 161 167 0
-105 154 -167 0
105 -161 167 0
105 -154 -167 0
106 155 -164 -166 0
106 -155 164 -166 0
-106 166 0
-106 155 164 0
-106 -155 -164 0
-107 -166 106 0
-107 -38 106 0
-107 164 106 0
107 -106 0
107 -164 166 38 0
108 -109 113 0
108 109 -113 0
-108 109 113 0
-108 -109 -113 0
109 170 -111 0
109 -170 111 112 0
109 170 -110 0
-109 -170 -111 0
-109 170 110 111 0
-109 -170 -112 0
110 -155 -164 -166 0
-110 155 0
-110 164 0
-110 166 0
111 155 -161 -164 0
111 -155 -161 164 0
-111 161 0
-111 -155 -164 0
-111 155 164 0
112 155 164 -166 0
-112 166 0
-112 -164 0
-112 -155 0
-113 114 115 0
-113 -114 -115 0
113 -114 115 0
113 114 -115 0
114 -170 106 0
-114 170 0
-114 -106 0
-115 164 167 0
-115 -158 -164 -167 0
-115 -154 167 0
-115 158 164 0
115 -158 164 -167 0
115 158 -164 -167 0
115 154 -164 167 0
-116 117 122 0
-116 -117 -122 0
116 -117 122 0
116 117 -122 0
117 118 -119 -121 0
117 -119 -120 -121 0
-117 121 0
-117 119 0
-117 -118 120 0
-118 156 -162 0
-118 162 163 0
118 -156 -162 0
118 162 -163 0
-119 159 162 0
-119 156 159 0
-119 162 -163 0
-119 -156 -159 -162 0
119 156 -159 -162 0
119 -156 159 -162 0
119 -159 162 163 0
120 157 -159 -160 0
120 -157 159 -160 0
-120 160 0
-120 157 159 0
-120 -157 -159 0
-121 -160 120 0
-121 -31 120 0
-121 159 120 0
121 -120 0
121 -159 160 31 0
-122 123 127 0
-122 -123 -127 0
122 -123 127 0
122 123 -127 0
123 151 -125 0
123 -151 124 125 0
123 151 -126 0
-123 -151 -124 0
-123 -151 -125 0
-123 151 125 126 0
124 157 159 -160 0
-124 160 0
-124 -159 0
-124 -157 0
125 157 -159 -163 0
125 -157 159 -163 0
-125 163 0
-125 157 159 0
-125 -157 -159 0
126 -157 -159 -160 0
-126 157 0
-126 159 0
-126 160 0
-127 128 129 0
-127 -128 -129 0
127 -128 129 0
127 128 -129 0
128 -151 120 0
-128 151 0
-128 -120 0
-129 159 162 0
-129 -150 -159 -162 0
-129 150 159 0
-129 -156 162 0
129 -150 159 -162 0
129 150 -159 -162 0
129 156 -159 162 0
130 -131 149 0
130 131 -149 0
-130 131 149 0
-130 -131 -149 0
131 -138 -148 0
131 132 -134 -148 0
131 -132 134 -148 0
-131 148 0
-131 132 134 138 0
-131 -132 -134 138 0
132 -133 89 -91 0
132 -88 89 91 0
132 -133 88 -91 0
132 88 -89 91 0
-132 133 -91 0
-132 -88 -89 0
-132 88 89 91 0
-133 -165 172 0
-133 165 171 0
133 165 -171 0
133 -165 -172 0
-134 -135 -136 0
-134 135 136 0
134 135 -136 0
134 -135 136 0
135 -119 117 0
135 -121 117 0
-135 -117 0
-135 119 121 0
136 -137 102 0
136 -107 102 0
-136 -102 0
-136 137 107 0
-137 164 167 0
-137 -154 -164 -167 0
-137 154 164 0
-137 -161 167 0
137 -154 164 -167 0
137 154 -164 -167 0
137 161 -164 167 0
138 -139 -142 -144 -146 0
-138 146 0
-138 139 0
-138 144 0
-138 142 0
139 -140 -47 0
139 -47 -141 0
139 -140 -141 0
-139 140 141 0
-139 47 141 0
-139 140 47 0
140 -160 -162 0
-140 160 0
-140 162 0
141 -165 -169 0
-141 165 0
-141 169 0
-142 -31 -143 0
-142 31 143 0
142 31 -143 0
142 -31 143 0
143 -159 -160 0
-143 159 0
-143 160 0
144 38 -145 0
144 -38 145 0
-144 -38 -145 0
-144 38 145 0
145 -164 -166 0
-145 164 0
-145 166 0
146 23 -147 0
146 -23 147 0
-146 -23 -147 0
-146 23 147 0
147 -168 -169 0
-147 168 0
-147 169 0
-148 139 142 146 0
-148 139 144 146 0
-148 139 142 144 0
-148 142 144 146 0
148 -139 -142 0
148 -144 -146 0
148 -139 -146 0
148 -142 -146 0
148 -139 -144 0
148 -142 -144 0
-149 132 136 0
-149 135 136 0
-149 132 135 0
149 -132 -135 0
149 -135 -136 0
149 -132 -136 0
-174 0
2 0

